lbl,CUST NO.,READY TIME,XCOORD.,YCOORD.,DEMAND,DUE DATE,SERVICE TIME
14,168,0,126,112,10,1191,90
14,29,0,127,108,10,1193,90
14,112,0,123,112,20,1194,90
14,156,0,122,113,20,1194,90
14,87,0,125,108,20,1195,90
14,134,0,119,114,20,1196,90
14,170,0,118,114,10,1196,90
14,42,0,121,110,30,1197,90
14,50,221,121,112,20,277,90
14,79,595,127,112,20,636,90
14,123,972,118,108,10,1008,90
